data/mip_solutions/furman_sahinidis/transshipment/8sp-fs1_cplex.sol
Elapsed time: 0.0244991779327
Nodes explored: 0
Upper bound: 11.0
Lower bound: 11.0
y[0,0]=1
y[0,3]=1
y[1,0]=1
y[1,3]=1
y[2,0]=1
y[2,1]=1
y[3,0]=1
y[3,1]=1
y[4,0]=1
y[5,0]=1
y[5,2]=1
q[0,0,6]=998.78
q[0,3,7]=1901.29
q[1,0,5]=602.64
q[1,0,6]=106.92
q[1,3,7]=100.44
q[2,0,4]=1350.36
q[2,0,5]=413.82
q[2,0,6]=231.13
q[2,1,6]=70.96
q[2,1,7]=231.52
q[3,0,3]=31.68
q[3,0,5]=320.76
q[3,1,6]=65.34
q[3,1,7]=31.68
q[4,0,1]=2084.28
q[4,0,4]=3315.9
q[5,0,1]=143.77
q[5,0,2]=324.08
q[5,0,3]=616.48
q[5,0,4]=356.98
q[5,0,5]=202.16
q[5,2,4]=1000.0
r[0,7]=388.21
r[1,3]=25.92
r[1,4]=77.76
r[1,5]=479.52
r[2,7]=57.28
r[3,5]=245.52
r[4,3]=252.64
r[4,4]=757.92
r[5,1]=2643.47
r[5,2]=2499.7
r[5,3]=2175.62
r[5,4]=1559.14
r[5,5]=202.16
